SAT
-100 19 89 16 -81 17 -95 -12 31 -6 70 8 -38 -57 -15 -30 49 22 -34 84 55 86 -7 35 14 -64 11 -36 83 77 -56 -2 13 -24 23 20 -67 45 42 -63 -99 -82 79 3 91 -74 85 46 -59 96 -62 75 -88 -39 44 -27 -72 -47 10 98 -76 -9 4 -50 60 -53 69 29 -90 80 87 33 -73 -97 32 37 43 -25 65 -5 -40 28 -51 61 -71 -68 58 92 26 -78 21 -48 -18 66 93 -1 -52 -54 -41 -94 0
